\ LP format - for model browsing. Use MPS format to capture full model detail.
Maximize
  5 C0(2) - 175 Constant
Subject To
 c0: <= 1
 c1: - C0(2) <= 2
 c2: C0(2) <= 15
 c3: <= 1
Bounds
 C0(2) free
 Constant = 1
End
